(set-info :source |printed by MathSAT|)
(declare-fun |!{$(in_main#0)<S>}| () Int)
(declare-fun |!{$(in_main#0)<S>}.next| () Int)
(declare-fun |!{$(in_main#0)<i>}| () Int)
(declare-fun |!{$(in_main#0)<i>}.next| () Int)
(declare-fun |!{$(in_main#0)<k>}| () Int)
(declare-fun |!{$(in_main#0)<k>}.next| () Int)
(declare-fun |!{$(in_main#0)<a.1>}| () (Array Int Int))
(declare-fun |!{$(in_main#0)<a.1>}.next| () (Array Int Int))
(declare-fun |!{$(in_main#0)<acopy.2>}| () (Array Int Int))
(declare-fun |!{$(in_main#0)<acopy.2>}.next| () (Array Int Int))
(declare-fun |!{$(in_main#0)<$(in___VERIFIER_nondet_int#0)<h#<__VERIFIER_nondet_int.return>>>}| () Int)
(declare-fun !pc () Int)
(declare-fun !pc.next () Int)
(declare-fun |%{$(in_main#0)<k>}#1| () Int)
(declare-fun |%{$(in_main#0)<a.1>}#1| () (Array Int Int))
(declare-fun |%{$(in_main#0)<acopy.2>}#1| () (Array Int Int))
(define-fun .def_28 () Int (! !pc :next !pc.next))
(define-fun .def_31 () Bool (! (= .def_28 2) :init true))
(define-fun .def_145 () Bool (= .def_28 37))
(define-fun .def_108 () Bool (= !pc.next 51))
(define-fun .def_148 () Bool (and .def_108 .def_145))
(define-fun .def_140 () Bool (= |!{$(in_main#0)<k>}.next| 0))
(define-fun .def_10 () Int (! |!{$(in_main#0)<i>}| :next |!{$(in_main#0)<i>}.next|))
(define-fun .def_79 () Bool (= .def_10 |!{$(in_main#0)<i>}.next|))
(define-fun .def_8 () Int (! |!{$(in_main#0)<S>}| :next |!{$(in_main#0)<S>}.next|))
(define-fun .def_77 () Bool (= .def_8 |!{$(in_main#0)<S>}.next|))
(define-fun .def_88 () Bool (and .def_77 .def_79))
(define-fun .def_141 () Bool (and .def_88 .def_140))
(define-fun .def_14 () (Array Int Int) (! |!{$(in_main#0)<a.1>}| :next |!{$(in_main#0)<a.1>}.next|))
(define-fun .def_83 () Bool (= .def_14 |!{$(in_main#0)<a.1>}.next|))
(define-fun .def_142 () Bool (and .def_83 .def_141))
(define-fun .def_16 () (Array Int Int) (! |!{$(in_main#0)<acopy.2>}| :next |!{$(in_main#0)<acopy.2>}.next|))
(define-fun .def_85 () Bool (= .def_16 |!{$(in_main#0)<acopy.2>}.next|))
(define-fun .def_143 () Bool (and .def_85 .def_142))
(define-fun .def_119 () Bool (<= .def_8 .def_10))
(define-fun .def_144 () Bool (and .def_119 .def_143))
(define-fun .def_149 () Bool (and .def_144 .def_148))
(define-fun .def_59 () Bool (= !pc.next 37))
(define-fun .def_146 () Bool (and .def_59 .def_145))
(define-fun .def_129 () Int (select .def_14 .def_10))
(define-fun .def_124 () Int (* (- 1) .def_10))
(define-fun .def_62 () Int (* 2 .def_8))
(define-fun .def_125 () Int (+ .def_62 .def_124))
(define-fun .def_126 () Int (+ .def_125 (- 1)))
(define-fun .def_127 () Int (select .def_14 .def_126))
(define-fun .def_128 () (Array Int Int) (store .def_16 .def_126 .def_127))
(define-fun .def_130 () (Array Int Int) (store .def_128 .def_10 .def_129))
(define-fun .def_137 () Bool (= |!{$(in_main#0)<acopy.2>}.next| .def_130))
(define-fun .def_131 () Int (* (- 1) |!{$(in_main#0)<i>}.next|))
(define-fun .def_132 () Int (+ .def_10 .def_131))
(define-fun .def_133 () Bool (= .def_132 (- 1)))
(define-fun .def_134 () Bool (and .def_77 .def_133))
(define-fun .def_12 () Int (! |!{$(in_main#0)<k>}| :next |!{$(in_main#0)<k>}.next|))
(define-fun .def_81 () Bool (= .def_12 |!{$(in_main#0)<k>}.next|))
(define-fun .def_135 () Bool (and .def_81 .def_134))
(define-fun .def_136 () Bool (and .def_83 .def_135))
(define-fun .def_138 () Bool (and .def_136 .def_137))
(define-fun .def_120 () Bool (not .def_119))
(define-fun .def_139 () Bool (and .def_120 .def_138))
(define-fun .def_147 () Bool (and .def_139 .def_146))
(define-fun .def_150 () Bool (or .def_147 .def_149))
(define-fun .def_112 () Bool (= !pc.next 0))
(define-fun .def_103 () Bool (= .def_28 51))
(define-fun .def_113 () Bool (and .def_103 .def_112))
(define-fun .def_64 () Int (* (- 1) .def_12))
(define-fun .def_65 () Int (+ .def_62 .def_64))
(define-fun .def_66 () Bool (<= .def_65 0))
(define-fun .def_97 () Bool (and .def_66 .def_77))
(define-fun .def_98 () Bool (and .def_79 .def_97))
(define-fun .def_99 () Bool (and .def_81 .def_98))
(define-fun .def_100 () Bool (and .def_83 .def_99))
(define-fun .def_101 () Bool (and .def_85 .def_100))
(define-fun .def_114 () Bool (and .def_101 .def_113))
(define-fun .def_109 () Bool (and .def_103 .def_108))
(define-fun .def_89 () Int (* (- 1) |!{$(in_main#0)<k>}.next|))
(define-fun .def_90 () Int (+ .def_12 .def_89))
(define-fun .def_91 () Bool (= .def_90 (- 1)))
(define-fun .def_92 () Bool (and .def_88 .def_91))
(define-fun .def_93 () Bool (and .def_83 .def_92))
(define-fun .def_94 () Bool (and .def_85 .def_93))
(define-fun .def_69 () Int (select .def_14 .def_12))
(define-fun .def_68 () Int (select .def_16 .def_12))
(define-fun .def_70 () Bool (= .def_68 .def_69))
(define-fun .def_71 () Int (ite .def_70 1 0))
(define-fun .def_72 () Bool (= .def_71 0))
(define-fun .def_73 () Bool (not .def_72))
(define-fun .def_95 () Bool (and .def_73 .def_94))
(define-fun .def_67 () Bool (not .def_66))
(define-fun .def_96 () Bool (and .def_67 .def_95))
(define-fun .def_110 () Bool (and .def_96 .def_109))
(define-fun .def_105 () Bool (= !pc.next 71))
(define-fun .def_106 () Bool (and .def_103 .def_105))
(define-fun .def_78 () Bool (and .def_72 .def_77))
(define-fun .def_80 () Bool (and .def_78 .def_79))
(define-fun .def_82 () Bool (and .def_80 .def_81))
(define-fun .def_84 () Bool (and .def_82 .def_83))
(define-fun .def_86 () Bool (and .def_84 .def_85))
(define-fun .def_87 () Bool (and .def_67 .def_86))
(define-fun .def_107 () Bool (and .def_87 .def_106))
(define-fun .def_111 () Bool (or .def_107 .def_110))
(define-fun .def_115 () Bool (or .def_111 .def_114))
(define-fun .def_60 () Bool (and .def_31 .def_59))
(define-fun .def_55 () Bool (= |!{$(in_main#0)<acopy.2>}.next| |%{$(in_main#0)<acopy.2>}#1|))
(define-fun .def_53 () Bool (= |!{$(in_main#0)<a.1>}.next| |%{$(in_main#0)<a.1>}#1|))
(define-fun .def_51 () Bool (= |!{$(in_main#0)<k>}.next| |%{$(in_main#0)<k>}#1|))
(define-fun .def_49 () Bool (= |!{$(in_main#0)<i>}.next| 0))
(define-fun .def_48 () Bool (= |!{$(in_main#0)<S>}.next| |!{$(in_main#0)<$(in___VERIFIER_nondet_int#0)<h#<__VERIFIER_nondet_int.return>>>}|))
(define-fun .def_50 () Bool (and .def_48 .def_49))
(define-fun .def_52 () Bool (and .def_50 .def_51))
(define-fun .def_54 () Bool (and .def_52 .def_53))
(define-fun .def_56 () Bool (and .def_54 .def_55))
(define-fun .def_43 () Bool (<= |!{$(in_main#0)<$(in___VERIFIER_nondet_int#0)<h#<__VERIFIER_nondet_int.return>>>}| 1))
(define-fun .def_44 () Bool (not .def_43))
(define-fun .def_45 () Int (ite .def_44 1 0))
(define-fun .def_46 () Bool (= .def_45 0))
(define-fun .def_47 () Bool (not .def_46))
(define-fun .def_57 () Bool (and .def_47 .def_56))
(define-fun .def_61 () Bool (and .def_57 .def_60))
(define-fun .def_116 () Bool (or .def_61 .def_115))
(define-fun .def_151 () Bool (! (or .def_116 .def_150) :trans true))
(define-fun .def_117 () Bool (= .def_28 71))
(define-fun .def_152 () Bool (! (not .def_117) :invar-property 0 :invar-property-name ||))
(assert true)
